include system.in
log data/log.water_${FORCE}_setup

#/atom 1 silicon
#/atom 2 oxygen
#/atom 3 hydrogen
#/bond 1 2 2.6
#/bond 2 3 1.4

units metal
boundary p p p
atom_style atomic

read_data data/withwater.data

pair_style  usc
pair_coeff  * * SiOH2O.vashishta Si O H
pair_modify coord 2 1 2.0 0.3
pair_modify coord 2 3 1.4 0.3
mass            1 28.08
mass            2 15.9994
mass            3 1.00794

include common_regions_groups.in

group moving subtract all rigidslab

group water subtract moving slab cylinder
group movingsilicate subtract moving water

variable dt equal ${dt_withwater}

timestep ${dt}
minimize 1e-6 1e-6 1000 1000
write_restart data/restart.flow_${FORCE}_0
